p cnf 37 45
-37 26 -4 0
1 3 -27 0
2 8 5 0
-5 10 25 0
-8 30 -32 0
-17 3 -23 0
-29 9 4 0
-34 -34 -22 0
7 34 -37 0
36 21 9 0
-21 -10 30 0
14 28 -13 0
-19 1 -2 0
-19 -36 34 0
21 23 16 0
-8 -7 -31 0
-23 22 17 0
-16 6 -3 0
37 -30 29 0
-29 -33 21 0
6 15 -4 0
-7 -7 -3 0
6 -15 11 0
-1 -37 7 0
-1 27 -2 0
-35 -23 26 0
12 -26 -36 0
3 27 10 0
9 37 14 0
14 27 28 0
-9 -20 5 0
-3 9 32 0
-31 -29 3 0
-7 29 13 0
-11 36 -37 0
4 -1 -30 0
-37 -32 -4 0
32 20 29 0
-26 15 29 0
-8 -29 -13 0
-16 33 -7 0
28 7 18 0
-23 -25 -9 0
31 -33 -6 0
15 24 21 0
